Minimize
  0.1111111111111111 y_0 + 0.1111111111111111 y_1 + 0.0833333333333333 y_2
   + 0.0769230769230769 y_3 + 0.0833333333333333 y_4 + 0.1 y_5
   + 0.0909090909090909 y_6 + 0.1 y_7 + 0.5 y_8 + 0.1111111111111111 y_9
   + y_10 + 0.1111111111111111 y_11 + 0.0833333333333333 y_12
   + 0.0909090909090909 y_13 + 0.1 y_14 + 0.1 y_15 + 0.125 y_16
   + 0.0833333333333333 y_17 + 0.125 y_18 + 0.0769230769230769 y_19
   + 0.1428571428571428 y_20 + 0.0909090909090909 y_21
   + 0.0909090909090909 y_22 + 0.0833333333333333 y_23
   + 0.3333333333333333 y_24 + 0.0909090909090909 y_25
   + 0.1111111111111111 y_26 + 0.2 y_27 + 0.25 y_28 + 0.1 y_29
   + 0.0833333333333333 y_30 + 0.0833333333333333 y_31
   + 0.0909090909090909 y_32 + 0.1 y_33 + 0.125 y_34
   + 0.0666666666666667 y_35 + 0.0909090909090909 y_36 + 0.1 y_37
   + 0.125 y_38 + 0.0909090909090909 y_39 + 0.0909090909090909 y_40
   + 0.0909090909090909 y_41 + 0.125 y_42 + 0.0909090909090909 y_43
   + 0.0833333333333333 y_44 + 0.1111111111111111 y_45
   + 0.0666666666666667 y_46 + 0.1 y_47 + 0.0833333333333333 y_48
   + 0.0769230769230769 y_49 + 0.3333333333333333 y_50
   + 0.0909090909090909 y_51 + 0.0833333333333333 y_52 + 0.1 y_53
   + 0.1 y_54 + 0.1 y_55 + 0.0833333333333333 y_56
   + 0.0833333333333333 y_57 + 0.25 y_58 + 0.0909090909090909 y_59
   + 0.0909090909090909 y_60 + 0.1 y_61 + 0.1 y_62
   + 0.0833333333333333 y_63 + 0.1 y_64 + 0.0769230769230769 y_65
   + 0.1 y_66 + 0.125 y_67 + 0.1666666666666667 y_68
   + 0.1428571428571428 y_69 + 0.1 y_70 + 0.0909090909090909 y_71
   + 0.1428571428571428 y_72 + 0.1428571428571428 y_73
   + 0.0909090909090909 y_74 + 0.1111111111111111 y_75
   + 0.1111111111111111 y_76 + 0.1111111111111111 y_77 + 0.125 y_78
   + 0.2 y_79 + 0.3333333333333333 y_80 + 0.1428571428571428 y_81
   + 0.0909090909090909 y_82 + 0.25 y_83 + 0.1 y_84
   + 0.0833333333333333 y_85 + 0.1666666666666667 y_86 + 0.25 y_87
   + 0.0909090909090909 y_88 + 0.3333333333333333 y_89
   + 0.0833333333333333 y_90 + 0.2 y_91 + 0.25 y_92
   + 0.1428571428571428 y_93 + 0.1666666666666667 y_94 + 0.2 y_95
   + 0.2 y_96 + 0.1 y_97 + 0.1111111111111111 y_98 + 0.1 y_99
   - 13.65397657897657 Constant
Subject To
 c_0: y_25 = 1
 c_1_0: y_0 + y_34 + y_38 + y_42 + y_51 + y_63 + y_66 + y_68 + y_70 + y_75
   + y_76 >= 1
 c_1_1: y_1 + y_6 + y_16 + y_25 + y_77 + y_81 + y_94 + y_99 >= 1
 c_1_2: y_2 + y_4 + y_5 + y_9 + y_12 + y_21 + y_23 + y_26 + y_31 + y_36
   + y_45 + y_52 + y_55 + y_71 + y_78 >= 1
 c_1_3: y_3 + y_35 + y_46 + y_48 + y_51 + y_63 + y_66 >= 1
 c_1_4: y_2 + y_4 + y_9 + y_12 + y_21 + y_23 + y_36 + y_45 + y_52 + y_55
   + y_60 + y_71 + y_98 >= 1
 c_1_5: y_2 + y_5 + y_9 + y_26 + y_31 + y_33 + y_45 + y_47 + y_55 + y_61
   + y_78 >= 1
 c_1_6: y_1 + y_6 + y_16 + y_29 + y_57 + y_77 + y_84 + y_90 >= 1
 c_1_7: y_7 + y_34 + y_38 + y_42 + y_56 + y_63 + y_67 + y_70 + y_75 + y_85
   + y_88 >= 1
 c_1_8: y_8 + y_10 + y_24 + y_50 + y_58 + y_79 + y_80 + y_83 + y_87 + y_89
   + y_91 + y_92 + y_96 >= 1
 c_1_9: y_2 + y_4 + y_5 + y_9 + y_12 + y_14 + y_21 + y_23 + y_26 + y_31
   + y_36 + y_45 + y_52 + y_55 + y_71 + y_78 + y_86 + y_98 >= 1
 c_1_10: y_8 + y_10 + y_24 + y_28 + y_50 + y_58 + y_79 + y_80 + y_83 + y_87
   + y_89 + y_91 + y_92 >= 1
 c_1_11: y_11 + y_17 + y_18 + y_20 + y_22 + y_30 + y_32 + y_39 + y_40
   + y_43 + y_49 + y_74 + y_93 >= 1
 c_1_12: y_2 + y_4 + y_9 + y_12 + y_21 + y_23 + y_31 + y_36 + y_45 + y_52
   + y_55 + y_71 + y_78 + y_98 >= 1
 c_1_13: y_13 + y_14 + y_37 + y_41 + y_44 + y_54 + y_60 + y_73 >= 1
 c_1_14: y_9 + y_13 + y_14 + y_21 + y_37 + y_54 + y_60 + y_71 + y_73 + y_98
   >= 1
 c_1_15: y_15 + y_33 + y_47 + y_53 + y_61 + y_62 + y_64 + y_97 >= 1
 c_1_16: y_1 + y_6 + y_16 + y_29 + y_57 + y_77 + y_84 + y_91 + y_94 >= 1
 c_1_17: y_11 + y_17 + y_19 + y_30 + y_32 + y_39 + y_40 + y_43 + y_49
   + y_74 >= 1
 c_1_18: y_11 + y_18 + y_20 + y_25 + y_27 + y_32 + y_40 + y_43 + y_74
   + y_79 + y_81 + y_95 >= 1
 c_1_19: y_17 + y_19 + y_22 + y_30 + y_32 + y_39 + y_43 + y_49 + y_65
   + y_82 >= 1
 c_1_20: y_11 + y_18 + y_20 + y_27 + y_40 + y_72 + y_79 + y_81 + y_93
   + y_95 >= 1
 c_1_21: y_2 + y_4 + y_9 + y_12 + y_14 + y_21 + y_23 + y_36 + y_45 + y_52
   + y_54 + y_55 + y_60 + y_71 + y_98 >= 1
 c_1_22: y_11 + y_19 + y_22 + y_39 + y_43 + y_59 + y_65 + y_82 + y_85
   + y_93 >= 1
 c_1_23: y_2 + y_4 + y_9 + y_12 + y_21 + y_23 + y_31 + y_36 + y_45 + y_52
   + y_55 + y_71 >= 1
 c_1_24: y_8 + y_10 + y_24 + y_50 + y_58 + y_80 + y_86 + y_87 + y_89 + y_91
   + y_92 + y_96 >= 1
 c_1_25: y_1 + y_18 + y_25 + y_74 + y_99 >= 1
 c_1_26: y_2 + y_5 + y_9 + y_26 + y_31 + y_33 + y_45 + y_47 + y_55 + y_61
   + y_78 + y_86 + y_96 >= 1
 c_1_27: y_18 + y_20 + y_27 + y_69 + y_72 + y_79 + y_80 + y_81 + y_89
   + y_93 + y_94 + y_95 >= 1
 c_1_28: y_10 + y_28 + y_42 + y_58 + y_67 + y_68 + y_69 + y_72 + y_83
   + y_93 >= 1
 c_1_29: y_6 + y_16 + y_29 + y_57 + y_77 + y_84 + y_90 >= 1
 c_1_30: y_11 + y_17 + y_19 + y_30 + y_32 + y_39 + y_40 + y_43 + y_49
   + y_74 >= 1
 c_1_31: y_2 + y_5 + y_9 + y_12 + y_23 + y_26 + y_31 + y_36 + y_45 + y_55
   + y_61 + y_71 + y_78 >= 1
 c_1_32: y_11 + y_17 + y_18 + y_19 + y_30 + y_32 + y_39 + y_40 + y_43
   + y_49 + y_74 >= 1
 c_1_33: y_5 + y_15 + y_26 + y_33 + y_47 + y_53 + y_61 + y_64 + y_97 >= 1
 c_1_34: y_0 + y_7 + y_34 + y_38 + y_42 + y_66 + y_68 + y_70 + y_75 + y_76
   + y_83 >= 1
 c_1_35: y_3 + y_35 + y_46 + y_63 >= 1
 c_1_36: y_2 + y_4 + y_9 + y_12 + y_21 + y_23 + y_31 + y_36 + y_45 + y_52
   + y_55 + y_71 + y_78 + y_98 >= 1
 c_1_37: y_13 + y_14 + y_37 + y_41 + y_54 + y_60 + y_73 + y_98 >= 1
 c_1_38: y_0 + y_7 + y_34 + y_38 + y_42 + y_63 + y_66 + y_68 + y_70 + y_75
   + y_76 >= 1
 c_1_39: y_11 + y_17 + y_19 + y_22 + y_30 + y_32 + y_39 + y_40 + y_43
   + y_49 + y_59 + y_65 + y_82 + y_93 >= 1
 c_1_40: y_11 + y_17 + y_18 + y_20 + y_30 + y_32 + y_39 + y_40 + y_43
   + y_49 + y_74 >= 1
 c_1_41: y_13 + y_37 + y_41 + y_44 + y_48 + y_51 >= 1
 c_1_42: y_0 + y_7 + y_28 + y_34 + y_38 + y_42 + y_56 + y_67 + y_68 + y_69
   + y_70 + y_72 + y_75 + y_88 >= 1
 c_1_43: y_11 + y_17 + y_18 + y_19 + y_22 + y_30 + y_32 + y_39 + y_40
   + y_43 + y_49 + y_65 + y_74 >= 1
 c_1_44: y_13 + y_41 + y_44 + y_48 + y_51 + y_66 + y_76 >= 1
 c_1_45: y_2 + y_4 + y_5 + y_9 + y_12 + y_21 + y_23 + y_26 + y_31 + y_36
   + y_45 + y_52 + y_55 + y_71 + y_78 + y_86 + y_96 + y_98 >= 1
 c_1_46: y_3 + y_35 + y_46 + y_63 >= 1
 c_1_47: y_5 + y_15 + y_26 + y_33 + y_47 + y_53 + y_61 + y_64 + y_97 >= 1
 c_1_48: y_3 + y_41 + y_44 + y_48 + y_51 + y_66 + y_76 >= 1
 c_1_49: y_11 + y_17 + y_19 + y_30 + y_32 + y_39 + y_40 + y_43 + y_49
   + y_65 >= 1
 c_1_50: y_8 + y_10 + y_24 + y_50 + y_58 + y_80 + y_83 + y_86 + y_87 + y_89
   + y_92 + y_96 >= 1
 c_1_51: y_0 + y_3 + y_41 + y_44 + y_48 + y_51 + y_66 + y_76 >= 1
 c_1_52: y_2 + y_4 + y_9 + y_12 + y_21 + y_23 + y_36 + y_45 + y_52 + y_55
   + y_60 + y_71 + y_98 >= 1
 c_1_53: y_15 + y_33 + y_47 + y_53 + y_61 + y_62 + y_64 + y_97 >= 1
 c_1_54: y_13 + y_14 + y_21 + y_37 + y_54 + y_60 + y_73 + y_98 >= 1
 c_1_55: y_2 + y_4 + y_5 + y_9 + y_12 + y_21 + y_23 + y_26 + y_31 + y_36
   + y_45 + y_52 + y_55 + y_71 + y_78 + y_86 + y_98 >= 1
 c_1_56: y_7 + y_42 + y_56 + y_59 + y_67 + y_75 + y_85 + y_88 >= 1
 c_1_57: y_6 + y_16 + y_29 + y_57 + y_77 + y_84 + y_90 >= 1
 c_1_58: y_8 + y_10 + y_24 + y_28 + y_50 + y_58 + y_68 + y_73 + y_83 + y_86
   + y_92 >= 1
 c_1_59: y_22 + y_39 + y_56 + y_59 + y_65 + y_67 + y_69 + y_82 + y_85
   + y_93 >= 1
 c_1_60: y_4 + y_13 + y_14 + y_21 + y_37 + y_52 + y_54 + y_60 + y_98 >= 1
 c_1_61: y_5 + y_15 + y_26 + y_31 + y_33 + y_47 + y_53 + y_61 + y_97 >= 1
 c_1_62: y_15 + y_53 + y_62 + y_64 + y_84 + y_90 + y_97 >= 1
 c_1_63: y_0 + y_3 + y_7 + y_35 + y_38 + y_46 + y_63 + y_66 + y_70 + y_75
   + y_88 >= 1
 c_1_64: y_15 + y_33 + y_47 + y_53 + y_62 + y_64 + y_84 + y_97 >= 1
 c_1_65: y_19 + y_22 + y_39 + y_43 + y_49 + y_59 + y_65 + y_82 >= 1
 c_1_66: y_0 + y_3 + y_34 + y_38 + y_44 + y_48 + y_51 + y_63 + y_66 + y_70
   + y_76 >= 1
 c_1_67: y_7 + y_28 + y_42 + y_56 + y_59 + y_67 + y_68 + y_69 + y_72 + y_75
   + y_85 + y_88 + y_93 >= 1
 c_1_68: y_0 + y_28 + y_34 + y_38 + y_42 + y_58 + y_67 + y_68 + y_70 + y_75
   + y_76 + y_83 >= 1
 c_1_69: y_27 + y_28 + y_42 + y_59 + y_67 + y_69 + y_72 + y_93 >= 1
 c_1_70: y_0 + y_7 + y_34 + y_38 + y_42 + y_63 + y_66 + y_68 + y_70 + y_75
   + y_76 + y_88 >= 1
 c_1_71: y_2 + y_4 + y_9 + y_12 + y_14 + y_21 + y_23 + y_31 + y_36 + y_45
   + y_52 + y_55 + y_71 + y_78 + y_98 >= 1
 c_1_72: y_20 + y_27 + y_28 + y_42 + y_67 + y_69 + y_72 + y_93 + y_95 >= 1
 c_1_73: y_13 + y_14 + y_37 + y_54 + y_58 + y_73 + y_86 + y_92 + y_98 >= 1
 c_1_74: y_11 + y_17 + y_18 + y_25 + y_30 + y_32 + y_40 + y_43 + y_74 >= 1
 c_1_75: y_0 + y_7 + y_34 + y_38 + y_42 + y_56 + y_63 + y_67 + y_68 + y_70
   + y_75 + y_88 >= 1
 c_1_76: y_0 + y_34 + y_38 + y_44 + y_48 + y_51 + y_66 + y_68 + y_70 + y_76
   >= 1
 c_1_77: y_1 + y_6 + y_16 + y_29 + y_57 + y_77 + y_81 + y_84 + y_94 + y_99
   >= 1
 c_1_78: y_2 + y_5 + y_9 + y_12 + y_26 + y_31 + y_36 + y_45 + y_55 + y_71
   + y_78 + y_86 + y_96 >= 1
 c_1_79: y_8 + y_10 + y_18 + y_20 + y_27 + y_79 + y_80 + y_81 + y_89 + y_91
   + y_94 + y_95 >= 1
 c_1_80: y_8 + y_10 + y_24 + y_27 + y_50 + y_79 + y_80 + y_81 + y_87 + y_89
   + y_91 + y_94 + y_95 >= 1
 c_1_81: y_1 + y_18 + y_20 + y_27 + y_77 + y_79 + y_80 + y_81 + y_89 + y_91
   + y_94 + y_95 + y_99 >= 1
 c_1_82: y_19 + y_22 + y_39 + y_59 + y_65 + y_82 + y_85 + y_93 >= 1
 c_1_83: y_8 + y_10 + y_28 + y_34 + y_50 + y_58 + y_68 + y_83 + y_92 >= 1
 c_1_84: y_6 + y_16 + y_29 + y_57 + y_62 + y_64 + y_77 + y_84 + y_90 + y_97
   >= 1
 c_1_85: y_7 + y_22 + y_56 + y_59 + y_67 + y_82 + y_85 + y_88 >= 1
 c_1_86: y_9 + y_24 + y_26 + y_45 + y_50 + y_55 + y_58 + y_73 + y_78 + y_86
   + y_87 + y_92 + y_96 + y_98 >= 1
 c_1_87: y_8 + y_10 + y_24 + y_50 + y_80 + y_86 + y_87 + y_89 + y_91 + y_92
   + y_96 >= 1
 c_1_88: y_7 + y_42 + y_56 + y_63 + y_67 + y_70 + y_75 + y_85 + y_88 >= 1
 c_1_89: y_8 + y_10 + y_24 + y_27 + y_50 + y_79 + y_80 + y_81 + y_87 + y_89
   + y_91 + y_94 + y_95 >= 1
 c_1_90: y_6 + y_29 + y_57 + y_62 + y_84 + y_90 >= 1
 c_1_91: y_8 + y_10 + y_16 + y_24 + y_79 + y_80 + y_81 + y_87 + y_89 + y_91
   + y_94 >= 1
 c_1_92: y_8 + y_10 + y_24 + y_50 + y_58 + y_73 + y_83 + y_86 + y_87 + y_92
   + y_96 >= 1
 c_1_93: y_11 + y_20 + y_22 + y_27 + y_28 + y_39 + y_59 + y_67 + y_69
   + y_72 + y_82 + y_93 + y_95 >= 1
 c_1_94: y_1 + y_16 + y_27 + y_77 + y_79 + y_80 + y_81 + y_89 + y_91 + y_94
   + y_95 >= 1
 c_1_95: y_18 + y_20 + y_27 + y_72 + y_79 + y_80 + y_81 + y_89 + y_93
   + y_94 + y_95 >= 1
 c_1_96: y_8 + y_24 + y_26 + y_45 + y_50 + y_78 + y_86 + y_87 + y_92 + y_96
   >= 1
 c_1_97: y_15 + y_33 + y_47 + y_53 + y_61 + y_62 + y_64 + y_84 + y_97 >= 1
 c_1_98: y_4 + y_9 + y_12 + y_14 + y_21 + y_36 + y_37 + y_45 + y_52 + y_54
   + y_55 + y_60 + y_71 + y_73 + y_86 + y_98 >= 1
 c_1_99: y_1 + y_25 + y_77 + y_81 + y_99 >= 1
Bounds
 Constant = 1
Binaries
 y_0 y_1 y_2 y_3 y_4 y_5 y_6 y_7 y_8 y_9 y_10 y_11 y_12 y_13 y_14 y_15 y_16
 y_17 y_18 y_19 y_20 y_21 y_22 y_23 y_24 y_25 y_26 y_27 y_28 y_29 y_30 y_31
 y_32 y_33 y_34 y_35 y_36 y_37 y_38 y_39 y_40 y_41 y_42 y_43 y_44 y_45 y_46
 y_47 y_48 y_49 y_50 y_51 y_52 y_53 y_54 y_55 y_56 y_57 y_58 y_59 y_60 y_61
 y_62 y_63 y_64 y_65 y_66 y_67 y_68 y_69 y_70 y_71 y_72 y_73 y_74 y_75 y_76
 y_77 y_78 y_79 y_80 y_81 y_82 y_83 y_84 y_85 y_86 y_87 y_88 y_89 y_90 y_91
 y_92 y_93 y_94 y_95 y_96 y_97 y_98 y_99
End
